50
100 100
1 69 876
2 65 430
3 64 9
4 63 809
5 63 690
6 63 946
7 62 835
8 61 668
9 60 478
10 59 545
11 59 610
12 58 521
13 56 613
14 55 333
15 53 532
16 51 447
17 51 664
18 50 399
19 50 271
20 44 202
21 42 102
22 42 19
23 41 116
24 38 192
25 38 51
26 37 654
27 37 308
28 37 593
29 35 400
30 34 482
31 32 447
32 31 900
33 31 261
34 28 443
35 28 41
36 27 824
37 24 426
38 19 407
39 18 33
40 17 233
41 17 537
42 15 193
43 15 816
44 15 255
45 15 825
46 14 530
47 14 676
48 14 775
49 11 665
50 11 202
